c Lingeling SAT Solver
c 
c Version azf 92032848c138b2f33629ad24394d60a3787a1046
c 
c Copyright (C) 2010-2014 Armin Biere JKU Linz Austria.
c All rights reserved.
c 
c released Don Mai 22 22:08:00 CEST 2014
c compiled Mon Oct  6 05:55:43 PDT 2014
c 
c gcc (Ubuntu 4.8.2-19ubuntu1) 4.8.2
c -Wall -O3 -DNDBLSCR -DNLGLOG -DNDEBUG -DNCHKSOL -DNLGLPICOSAT -DNLGLDRUPLIG
c -DNLGLYALSAT
c Linux ubuntu 3.13.0-32-generic x86_64
c 
c reading input file benchmark-sat/translations/gc-huck-10.cnf
c no embedded options
c found 'p cnf 740 9424' header
c read 740 variables, 9424 clauses, 19440 literals in 0.00 seconds
c 
c  seconds         irredundant          redundant clauses agility   height
c          variables clauses conflicts large ternary binary    glue         MB
c 
c S    0.0     740     9424         0       0      0     0   0  0.0   0.0    0
c S    1.0     465     2662     40056    3579      0  1848  22 18.2  26.5    2
c S    2.0     465     2662     85222    6114      0  1848  17 16.3  23.9    2
c S    5.0     465     2662    207903    6807      1  1849  17 15.3  21.9    4
c S   10.0     465     2662    383565   10520      2  1849  19 17.2  25.5    6
c S   20.0     465     2662    744050    8476      2  1849  17 18.6  26.7    5
c S   30.1     464     2645   1062329   25803      2  1841  20 17.9  26.2    9
c S   40.1     463     2645   1392771   17440     15  1849  28 17.7  26.1    8
c S   50.0     463     2645   1659688   27319     15  1849  19 17.9  26.3   14
c S   60.2     463     2628   1875326   48117      2  1834  22 18.3  26.6   21
c S  120.1     461     2628   3676634   21247     46  1843  17 16.9  24.8    9
c 
c  seconds         irredundant          redundant clauses agility   height
c          variables clauses conflicts large ternary binary    glue         MB
c 
s UNSATISFIABLE
c
c    1.607   1% simplifying
c  153.030  99% search
c ==================================
c  154.637 100% all
c 
c 4919067 decisions, 31810.4 decisions/sec
c 4469476 conflicts, 28903.0 conflicts/sec
c 73448515 propagations, 0.5 megaprops/sec
c 154.6 seconds, 29.3 MB
